1
1000
50
259 1
388 1
261 1
262 2
264 1
265 1
268 1
269 1
270 1
276 2
278 1
281 3
282 2
283 1
285 1
286 1
389 1
416 1
496 1
290 1
422 1
433 1
296 1
301 1
302 1
432 1
305 1
327 1
328 1
396 1
334 1
335 1
483 1
340 1
462 1
463 1
347 1
352 1
355 1
484 1
358 1
360 1
361 1
489 1
372 2
380 2
250 1
252 4
254 1
469 1
